38869 39469 
38531 39683 
38057 39885 
37429 40202 
38137 39838 
37651 40024 
38435 39687 
37069 40225 
38122 39844 
38310 39756 
37817 40011 
36744 40298 
36824 40251 
38638 39599 
36655 40360 
36809 40257 
39325 39163 
39073 39321 
36871 40231 
36190 40438 
36052 40485 
39935 38706 
39683 38864 
36279 40376 
